
Gurobi 9.5.1 (linux64) logging started Tue 16 Aug 2022 05:54:27 PM MST

Set parameter LogFile to value "/home/local/ASUAD/kmajd1/NNRepLayer_v2/demos/walking_example/global_constraint_upper_10/repair_net/logs/opt_log_multi_46.log"
Gurobi Optimizer version 9.5.1 build v9.5.1rc2 (linux64)
Thread count: 48 physical cores, 96 logical processors, using up to 45 threads
Optimize a model with 16863 rows, 10742 columns and 151999 nonzeros
Model fingerprint: 0xf954b7d0
Model has 149 quadratic objective terms
Variable types: 5974 continuous, 4768 integer (4768 binary)
Coefficient statistics:
  Matrix range     [1e-03, 3e+02]
  Objective range  [2e-03, 1e+00]
  QObjective range [1e-02, 1e-02]
  Bounds range     [1e+00, 2e+03]
  RHS range        [4e-04, 3e+02]

Concurrent MIP optimizer: 3 concurrent instances (15 threads per instance)

Presolve removed 426 rows and 64 columns
Presolve time: 0.24s
Presolved: 16437 rows, 10678 columns, 151445 nonzeros
Presolved model has 149 quadratic objective terms
Variable types: 5910 continuous, 4768 integer (4768 binary)
Root relaxation presolve removed 4768 rows and 4768 columns
Root relaxation presolved: 11669 rows, 5910 columns, 137141 nonzeros
Root relaxation presolved model has 149 quadratic objective terms


Root relaxation: objective 3.074489e+01, 8829 iterations, 0.24 seconds (0.38 work units)

    Nodes    |    Current Node    |     Objective Bounds      |     Work
 Expl Unexpl |  Obj  Depth IntInf | Incumbent    BestBd   Gap | It/Node Time

     0     0      -    -    -      192.35105   30.74489  84.0%     -    0s
     0     0      -    -    -      188.24199   30.74489  83.7%     -    3s
     0     2      -    -    -      174.44204   30.74489  82.4%     -    9s
     1     4      -    -    -      174.44204   30.74489  82.4%     -   14s
     3     8      -    -    -      174.44204   30.74489  82.4%     -   15s
    30    46      -    -    -      171.39662   30.74489  82.1%     -   22s
   201   227      -    -    -      165.46724   30.74489  81.4%     -   25s
   541   557      -    -    -       42.98495   30.74489  28.5%     -   30s
  1064  1080      -    -    -       36.33510   30.74489  15.4%     -   40s
  1079  1095      -    -    -       36.31224   30.74489  15.3%     -   59s
  1094  1110      -    -    -       36.31224   30.74489  15.3%     -   67s
  2328  2426      -    -    -       36.31224   30.74489  15.3%     -   70s
  4664  4954      -    -    -       36.31224   30.74489  15.3%     -   75s

Instance 2 was solved

Explored 8595 nodes (601417 simplex iterations) in 79.01 seconds (158.75 work units)
Thread count was 15 (of 96 available processors)

Solution count 10: 34.474 34.677 35.0657 ... 36.7519 

Optimal solution found (tolerance 1.10e-01)
Best objective 3.447402676307e+01, best bound 3.074489249424e+01, gap 10.8172%
